0 61 50 56 61 74 60 53 55 87 63 52 87 88 75 55 72 98 50 83 90 82 71 95 99 56 80 82 53 67 85 95 82 50 58 69 95 65 76 96 66 62 84 60 81 70 99 83 71 56 93 66 64 72 62 91 64 99 90 72 62 72 91 50 72 87 88 77 89 87 83 53 97 90 68 74 62 87 